100
1000
250
0 0
-34 15
-34 15
-34 15
-34 15
-34 15
-34 15
-34 15
-34 15
-34 15
-34 15
-34 15
-34 15
-34 15
-34 15
-34 15
-34 15
-34 15
-34 15
-34 15
-34 15
-34 15
-34 15
-34 15
-34 15
-34 15
-6 15
-6 15
-6 15
-6 15
-6 15
-6 15
-6 15
-6 15
-6 15
-6 15
-6 15
-6 15
-6 15
-6 15
-6 15
-6 15
-6 15
-6 15
-6 15
-6 15
-6 15
-6 15
-6 15
-6 15
-6 15
-24 1
-24 1
-24 1
-24 1
-24 1
-24 1
-24 1
-24 1
-24 1
-24 1
-24 1
-24 1
-24 1
-24 1
-24 1
-24 1
-24 1
-24 1
-24 1
-24 1
-24 1
-24 1
-24 1
-24 1
-24 1
38 -13
38 -13
38 -13
38 -13
38 -13
38 -13
38 -13
38 -13
38 -13
38 -13
38 -13
38 -13
38 -13
38 -13
38 -13
38 -13
38 -13
38 -13
38 -13
38 -13
38 -13
38 -13
38 -13
38 -13
38 -13
13 6
13 6
13 6
13 6
13 6
13 6
13 6
13 6
13 6
13 6
13 6
13 6
13 6
13 6
13 6
13 6
13 6
13 6
13 6
13 6
13 6
13 6
13 6
13 6
13 6
17 -11
20 -40
10 -15
-22 -28
-9 -9
-19 40
-6 34
1 -10
20 -1
-11 15
7 -22
33 -5
-1 37
7 -10
-8 -21
25 -23
-35 28
15 -40
26 -9
11 -13
1 36
-8 37
20 37
9 4
38 31
17 -11
20 -40
10 -15
-22 -28
-9 -9
-19 40
-6 34
1 -10
20 -1
-11 15
7 -22
33 -5
-1 37
7 -10
-8 -21
25 -23
-35 28
15 -40
26 -9
11 -13
1 36
-8 37
20 37
9 4
38 31
17 -11
20 -40
10 -15
-22 -28
-9 -9
-19 40
-6 34
1 -10
20 -1
-11 15
7 -22
33 -5
-1 37
7 -10
-8 -21
25 -23
-35 28
15 -40
26 -9
11 -13
1 36
-8 37
20 37
9 4
38 31
17 -11
20 -40
10 -15
-22 -28
-9 -9
-19 40
-6 34
1 -10
20 -1
-11 15
7 -22
33 -5
-1 37
7 -10
-8 -21
25 -23
-35 28
15 -40
26 -9
11 -13
1 36
-8 37
20 37
9 4
38 31
17 -11
20 -40
10 -15
-22 -28
-9 -9
-19 40
-6 34
1 -10
20 -1
-11 15
7 -22
33 -5
-1 37
7 -10
-8 -21
25 -23
-35 28
15 -40
26 -9
11 -13
1 36
-8 37
20 37
9 4
38 31
0 0 
55
56
56
57
54
55
54
53
53
53
54
51
52
55
59
57
51
59
56
57
60
60
52
56
56
54
55
57
54
60
56
56
53
53
56
57
60
55
53
56
60
55
51
52
53
59
55
55
55
57
52
53
55
55
56
59
51
56
51
52
55
54
54
57
56
59
54
52
55
54
57
55
56
59
54
54
59
57
53
57
57
56
54
55
55
53
55
57
60
57
54
52
53
56
51
53
55
59
54
54
51
56
60
52
54
56
56
56
53
60
55
57
57
53
52
55
57
59
59
60
59
56
53
59
55
55
56
56
57
54
55
54
53
53
53
54
51
52
55
59
57
51
59
56
57
60
60
52
56
56
54
55
57
54
60
56
56
53
53
56
57
60
55
53
56
60
55
51
52
53
59
55
55
55
57
52
53
55
55
56
59
51
56
51
52
55
54
54
57
56
59
54
52
55
54
57
55
56
59
54
54
59
57
53
57
57
56
54
55
55
53
55
57
60
57
54
52
53
56
51
53
55
59
54
54
51
56
60
52
54
56
56
56
53
60
55
57
57
53
52
55
57
59
59
60
59
56
53
59
55
